! generated by cif2qewan.py
&control
  calculation = 'nscf'
  restart_mode = 'from_scratch'
  prefix = 'pwscf'
  tstress = .true.
  tprnfor = .true.
  pseudo_dir = '/home/arimoto/PseudoPotentials/PseudoDojo'
  outdir = './work'
  wf_collect = .true.
  disk_io = 'low'
/
&system
  nosym = .true.
  nbnd = 56
  ibrav = 0
  A =    2.86304
  nat = 1
  ntyp = 1
  ecutwfc = 106.0
  ecutrho = 424.0
  occupations = 'smearing'
  smearing = 'm-p'
  degauss = 0.010
  lspinorb = .true.
  noncolin = .true.
  lforcet = .true.
  angle1 = 0
  angle2 = 0
  starting_magnetization(1) = 3.0
/
&electrons
  mixing_mode = 'plain'
  mixing_beta = 0.1
  conv_thr = 1.d-10
/
CELL_PARAMETERS {alat}
 -0.500000000000000   0.500000000000000   0.500000000000000 
  0.500000000000000  -0.500000000000000   0.500000000000000 
  0.500000000000000   0.500000000000000  -0.500000000000000 

ATOMIC_SPECIES
  Fe   55.84500  Fe_fr.UPF

ATOMIC_POSITIONS {crystal}
Fe   0.000000000000000   0.000000000000000   0.000000000000000 

K_POINTS {crystal}
512
   0.0000000000    0.0000000000    0.0000000000    0.0019531250
   0.0000000000    0.0000000000    0.1250000000    0.0019531250
   0.0000000000    0.0000000000    0.2500000000    0.0019531250
   0.0000000000    0.0000000000    0.3750000000    0.0019531250
   0.0000000000    0.0000000000    0.5000000000    0.0019531250
   0.0000000000    0.0000000000    0.6250000000    0.0019531250
   0.0000000000    0.0000000000    0.7500000000    0.0019531250
   0.0000000000    0.0000000000    0.8750000000    0.0019531250
   0.0000000000    0.1250000000    0.0000000000    0.0019531250
   0.0000000000    0.1250000000    0.1250000000    0.0019531250
   0.0000000000    0.1250000000    0.2500000000    0.0019531250
   0.0000000000    0.1250000000    0.3750000000    0.0019531250
   0.0000000000    0.1250000000    0.5000000000    0.0019531250
   0.0000000000    0.1250000000    0.6250000000    0.0019531250
   0.0000000000    0.1250000000    0.7500000000    0.0019531250
   0.0000000000    0.1250000000    0.8750000000    0.0019531250
   0.0000000000    0.2500000000    0.0000000000    0.0019531250
   0.0000000000    0.2500000000    0.1250000000    0.0019531250
   0.0000000000    0.2500000000    0.2500000000    0.0019531250
   0.0000000000    0.2500000000    0.3750000000    0.0019531250
   0.0000000000    0.2500000000    0.5000000000    0.0019531250
   0.0000000000    0.2500000000    0.6250000000    0.0019531250
   0.0000000000    0.2500000000    0.7500000000    0.0019531250
   0.0000000000    0.2500000000    0.8750000000    0.0019531250
   0.0000000000    0.3750000000    0.0000000000    0.0019531250
   0.0000000000    0.3750000000    0.1250000000    0.0019531250
   0.0000000000    0.3750000000    0.2500000000    0.0019531250
   0.0000000000    0.3750000000    0.3750000000    0.0019531250
   0.0000000000    0.3750000000    0.5000000000    0.0019531250
   0.0000000000    0.3750000000    0.6250000000    0.0019531250
   0.0000000000    0.3750000000    0.7500000000    0.0019531250
   0.0000000000    0.3750000000    0.8750000000    0.0019531250
   0.0000000000    0.5000000000    0.0000000000    0.0019531250
   0.0000000000    0.5000000000    0.1250000000    0.0019531250
   0.0000000000    0.5000000000    0.2500000000    0.0019531250
   0.0000000000    0.5000000000    0.3750000000    0.0019531250
   0.0000000000    0.5000000000    0.5000000000    0.0019531250
   0.0000000000    0.5000000000    0.6250000000    0.0019531250
   0.0000000000    0.5000000000    0.7500000000    0.0019531250
   0.0000000000    0.5000000000    0.8750000000    0.0019531250
   0.0000000000    0.6250000000    0.0000000000    0.0019531250
   0.0000000000    0.6250000000    0.1250000000    0.0019531250
   0.0000000000    0.6250000000    0.2500000000    0.0019531250
   0.0000000000    0.6250000000    0.3750000000    0.0019531250
   0.0000000000    0.6250000000    0.5000000000    0.0019531250
   0.0000000000    0.6250000000    0.6250000000    0.0019531250
   0.0000000000    0.6250000000    0.7500000000    0.0019531250
   0.0000000000    0.6250000000    0.8750000000    0.0019531250
   0.0000000000    0.7500000000    0.0000000000    0.0019531250
   0.0000000000    0.7500000000    0.1250000000    0.0019531250
   0.0000000000    0.7500000000    0.2500000000    0.0019531250
   0.0000000000    0.7500000000    0.3750000000    0.0019531250
   0.0000000000    0.7500000000    0.5000000000    0.0019531250
   0.0000000000    0.7500000000    0.6250000000    0.0019531250
   0.0000000000    0.7500000000    0.7500000000    0.0019531250
   0.0000000000    0.7500000000    0.8750000000    0.0019531250
   0.0000000000    0.8750000000    0.0000000000    0.0019531250
   0.0000000000    0.8750000000    0.1250000000    0.0019531250
   0.0000000000    0.8750000000    0.2500000000    0.0019531250
   0.0000000000    0.8750000000    0.3750000000    0.0019531250
   0.0000000000    0.8750000000    0.5000000000    0.0019531250
   0.0000000000    0.8750000000    0.6250000000    0.0019531250
   0.0000000000    0.8750000000    0.7500000000    0.0019531250
   0.0000000000    0.8750000000    0.8750000000    0.0019531250
   0.1250000000    0.0000000000    0.0000000000    0.0019531250
   0.1250000000    0.0000000000    0.1250000000    0.0019531250
   0.1250000000    0.0000000000    0.2500000000    0.0019531250
   0.1250000000    0.0000000000    0.3750000000    0.0019531250
   0.1250000000    0.0000000000    0.5000000000    0.0019531250
   0.1250000000    0.0000000000    0.6250000000    0.0019531250
   0.1250000000    0.0000000000    0.7500000000    0.0019531250
   0.1250000000    0.0000000000    0.8750000000    0.0019531250
   0.1250000000    0.1250000000    0.0000000000    0.0019531250
   0.1250000000    0.1250000000    0.1250000000    0.0019531250
   0.1250000000    0.1250000000    0.2500000000    0.0019531250
   0.1250000000    0.1250000000    0.3750000000    0.0019531250
   0.1250000000    0.1250000000    0.5000000000    0.0019531250
   0.1250000000    0.1250000000    0.6250000000    0.0019531250
   0.1250000000    0.1250000000    0.7500000000    0.0019531250
   0.1250000000    0.1250000000    0.8750000000    0.0019531250
   0.1250000000    0.2500000000    0.0000000000    0.0019531250
   0.1250000000    0.2500000000    0.1250000000    0.0019531250
   0.1250000000    0.2500000000    0.2500000000    0.0019531250
   0.1250000000    0.2500000000    0.3750000000    0.0019531250
   0.1250000000    0.2500000000    0.5000000000    0.0019531250
   0.1250000000    0.2500000000    0.6250000000    0.0019531250
   0.1250000000    0.2500000000    0.7500000000    0.0019531250
   0.1250000000    0.2500000000    0.8750000000    0.0019531250
   0.1250000000    0.3750000000    0.0000000000    0.0019531250
   0.1250000000    0.3750000000    0.1250000000    0.0019531250
   0.1250000000    0.3750000000    0.2500000000    0.0019531250
   0.1250000000    0.3750000000    0.3750000000    0.0019531250
   0.1250000000    0.3750000000    0.5000000000    0.0019531250
   0.1250000000    0.3750000000    0.6250000000    0.0019531250
   0.1250000000    0.3750000000    0.7500000000    0.0019531250
   0.1250000000    0.3750000000    0.8750000000    0.0019531250
   0.1250000000    0.5000000000    0.0000000000    0.0019531250
   0.1250000000    0.5000000000    0.1250000000    0.0019531250
   0.1250000000    0.5000000000    0.2500000000    0.0019531250
   0.1250000000    0.5000000000    0.3750000000    0.0019531250
   0.1250000000    0.5000000000    0.5000000000    0.0019531250
   0.1250000000    0.5000000000    0.6250000000    0.0019531250
   0.1250000000    0.5000000000    0.7500000000    0.0019531250
   0.1250000000    0.5000000000    0.8750000000    0.0019531250
   0.1250000000    0.6250000000    0.0000000000    0.0019531250
   0.1250000000    0.6250000000    0.1250000000    0.0019531250
   0.1250000000    0.6250000000    0.2500000000    0.0019531250
   0.1250000000    0.6250000000    0.3750000000    0.0019531250
   0.1250000000    0.6250000000    0.5000000000    0.0019531250
   0.1250000000    0.6250000000    0.6250000000    0.0019531250
   0.1250000000    0.6250000000    0.7500000000    0.0019531250
   0.1250000000    0.6250000000    0.8750000000    0.0019531250
   0.1250000000    0.7500000000    0.0000000000    0.0019531250
   0.1250000000    0.7500000000    0.1250000000    0.0019531250
   0.1250000000    0.7500000000    0.2500000000    0.0019531250
   0.1250000000    0.7500000000    0.3750000000    0.0019531250
   0.1250000000    0.7500000000    0.5000000000    0.0019531250
   0.1250000000    0.7500000000    0.6250000000    0.0019531250
   0.1250000000    0.7500000000    0.7500000000    0.0019531250
   0.1250000000    0.7500000000    0.8750000000    0.0019531250
   0.1250000000    0.8750000000    0.0000000000    0.0019531250
   0.1250000000    0.8750000000    0.1250000000    0.0019531250
   0.1250000000    0.8750000000    0.2500000000    0.0019531250
   0.1250000000    0.8750000000    0.3750000000    0.0019531250
   0.1250000000    0.8750000000    0.5000000000    0.0019531250
   0.1250000000    0.8750000000    0.6250000000    0.0019531250
   0.1250000000    0.8750000000    0.7500000000    0.0019531250
   0.1250000000    0.8750000000    0.8750000000    0.0019531250
   0.2500000000    0.0000000000    0.0000000000    0.0019531250
   0.2500000000    0.0000000000    0.1250000000    0.0019531250
   0.2500000000    0.0000000000    0.2500000000    0.0019531250
   0.2500000000    0.0000000000    0.3750000000    0.0019531250
   0.2500000000    0.0000000000    0.5000000000    0.0019531250
   0.2500000000    0.0000000000    0.6250000000    0.0019531250
   0.2500000000    0.0000000000    0.7500000000    0.0019531250
   0.2500000000    0.0000000000    0.8750000000    0.0019531250
   0.2500000000    0.1250000000    0.0000000000    0.0019531250
   0.2500000000    0.1250000000    0.1250000000    0.0019531250
   0.2500000000    0.1250000000    0.2500000000    0.0019531250
   0.2500000000    0.1250000000    0.3750000000    0.0019531250
   0.2500000000    0.1250000000    0.5000000000    0.0019531250
   0.2500000000    0.1250000000    0.6250000000    0.0019531250
   0.2500000000    0.1250000000    0.7500000000    0.0019531250
   0.2500000000    0.1250000000    0.8750000000    0.0019531250
   0.2500000000    0.2500000000    0.0000000000    0.0019531250
   0.2500000000    0.2500000000    0.1250000000    0.0019531250
   0.2500000000    0.2500000000    0.2500000000    0.0019531250
   0.2500000000    0.2500000000    0.3750000000    0.0019531250
   0.2500000000    0.2500000000    0.5000000000    0.0019531250
   0.2500000000    0.2500000000    0.6250000000    0.0019531250
   0.2500000000    0.2500000000    0.7500000000    0.0019531250
   0.2500000000    0.2500000000    0.8750000000    0.0019531250
   0.2500000000    0.3750000000    0.0000000000    0.0019531250
   0.2500000000    0.3750000000    0.1250000000    0.0019531250
   0.2500000000    0.3750000000    0.2500000000    0.0019531250
   0.2500000000    0.3750000000    0.3750000000    0.0019531250
   0.2500000000    0.3750000000    0.5000000000    0.0019531250
   0.2500000000    0.3750000000    0.6250000000    0.0019531250
   0.2500000000    0.3750000000    0.7500000000    0.0019531250
   0.2500000000    0.3750000000    0.8750000000    0.0019531250
   0.2500000000    0.5000000000    0.0000000000    0.0019531250
   0.2500000000    0.5000000000    0.1250000000    0.0019531250
   0.2500000000    0.5000000000    0.2500000000    0.0019531250
   0.2500000000    0.5000000000    0.3750000000    0.0019531250
   0.2500000000    0.5000000000    0.5000000000    0.0019531250
   0.2500000000    0.5000000000    0.6250000000    0.0019531250
   0.2500000000    0.5000000000    0.7500000000    0.0019531250
   0.2500000000    0.5000000000    0.8750000000    0.0019531250
   0.2500000000    0.6250000000    0.0000000000    0.0019531250
   0.2500000000    0.6250000000    0.1250000000    0.0019531250
   0.2500000000    0.6250000000    0.2500000000    0.0019531250
   0.2500000000    0.6250000000    0.3750000000    0.0019531250
   0.2500000000    0.6250000000    0.5000000000    0.0019531250
   0.2500000000    0.6250000000    0.6250000000    0.0019531250
   0.2500000000    0.6250000000    0.7500000000    0.0019531250
   0.2500000000    0.6250000000    0.8750000000    0.0019531250
   0.2500000000    0.7500000000    0.0000000000    0.0019531250
   0.2500000000    0.7500000000    0.1250000000    0.0019531250
   0.2500000000    0.7500000000    0.2500000000    0.0019531250
   0.2500000000    0.7500000000    0.3750000000    0.0019531250
   0.2500000000    0.7500000000    0.5000000000    0.0019531250
   0.2500000000    0.7500000000    0.6250000000    0.0019531250
   0.2500000000    0.7500000000    0.7500000000    0.0019531250
   0.2500000000    0.7500000000    0.8750000000    0.0019531250
   0.2500000000    0.8750000000    0.0000000000    0.0019531250
   0.2500000000    0.8750000000    0.1250000000    0.0019531250
   0.2500000000    0.8750000000    0.2500000000    0.0019531250
   0.2500000000    0.8750000000    0.3750000000    0.0019531250
   0.2500000000    0.8750000000    0.5000000000    0.0019531250
   0.2500000000    0.8750000000    0.6250000000    0.0019531250
   0.2500000000    0.8750000000    0.7500000000    0.0019531250
   0.2500000000    0.8750000000    0.8750000000    0.0019531250
   0.3750000000    0.0000000000    0.0000000000    0.0019531250
   0.3750000000    0.0000000000    0.1250000000    0.0019531250
   0.3750000000    0.0000000000    0.2500000000    0.0019531250
   0.3750000000    0.0000000000    0.3750000000    0.0019531250
   0.3750000000    0.0000000000    0.5000000000    0.0019531250
   0.3750000000    0.0000000000    0.6250000000    0.0019531250
   0.3750000000    0.0000000000    0.7500000000    0.0019531250
   0.3750000000    0.0000000000    0.8750000000    0.0019531250
   0.3750000000    0.1250000000    0.0000000000    0.0019531250
   0.3750000000    0.1250000000    0.1250000000    0.0019531250
   0.3750000000    0.1250000000    0.2500000000    0.0019531250
   0.3750000000    0.1250000000    0.3750000000    0.0019531250
   0.3750000000    0.1250000000    0.5000000000    0.0019531250
   0.3750000000    0.1250000000    0.6250000000    0.0019531250
   0.3750000000    0.1250000000    0.7500000000    0.0019531250
   0.3750000000    0.1250000000    0.8750000000    0.0019531250
   0.3750000000    0.2500000000    0.0000000000    0.0019531250
   0.3750000000    0.2500000000    0.1250000000    0.0019531250
   0.3750000000    0.2500000000    0.2500000000    0.0019531250
   0.3750000000    0.2500000000    0.3750000000    0.0019531250
   0.3750000000    0.2500000000    0.5000000000    0.0019531250
   0.3750000000    0.2500000000    0.6250000000    0.0019531250
   0.3750000000    0.2500000000    0.7500000000    0.0019531250
   0.3750000000    0.2500000000    0.8750000000    0.0019531250
   0.3750000000    0.3750000000    0.0000000000    0.0019531250
   0.3750000000    0.3750000000    0.1250000000    0.0019531250
   0.3750000000    0.3750000000    0.2500000000    0.0019531250
   0.3750000000    0.3750000000    0.3750000000    0.0019531250
   0.3750000000    0.3750000000    0.5000000000    0.0019531250
   0.3750000000    0.3750000000    0.6250000000    0.0019531250
   0.3750000000    0.3750000000    0.7500000000    0.0019531250
   0.3750000000    0.3750000000    0.8750000000    0.0019531250
   0.3750000000    0.5000000000    0.0000000000    0.0019531250
   0.3750000000    0.5000000000    0.1250000000    0.0019531250
   0.3750000000    0.5000000000    0.2500000000    0.0019531250
   0.3750000000    0.5000000000    0.3750000000    0.0019531250
   0.3750000000    0.5000000000    0.5000000000    0.0019531250
   0.3750000000    0.5000000000    0.6250000000    0.0019531250
   0.3750000000    0.5000000000    0.7500000000    0.0019531250
   0.3750000000    0.5000000000    0.8750000000    0.0019531250
   0.3750000000    0.6250000000    0.0000000000    0.0019531250
   0.3750000000    0.6250000000    0.1250000000    0.0019531250
   0.3750000000    0.6250000000    0.2500000000    0.0019531250
   0.3750000000    0.6250000000    0.3750000000    0.0019531250
   0.3750000000    0.6250000000    0.5000000000    0.0019531250
   0.3750000000    0.6250000000    0.6250000000    0.0019531250
   0.3750000000    0.6250000000    0.7500000000    0.0019531250
   0.3750000000    0.6250000000    0.8750000000    0.0019531250
   0.3750000000    0.7500000000    0.0000000000    0.0019531250
   0.3750000000    0.7500000000    0.1250000000    0.0019531250
   0.3750000000    0.7500000000    0.2500000000    0.0019531250
   0.3750000000    0.7500000000    0.3750000000    0.0019531250
   0.3750000000    0.7500000000    0.5000000000    0.0019531250
   0.3750000000    0.7500000000    0.6250000000    0.0019531250
   0.3750000000    0.7500000000    0.7500000000    0.0019531250
   0.3750000000    0.7500000000    0.8750000000    0.0019531250
   0.3750000000    0.8750000000    0.0000000000    0.0019531250
   0.3750000000    0.8750000000    0.1250000000    0.0019531250
   0.3750000000    0.8750000000    0.2500000000    0.0019531250
   0.3750000000    0.8750000000    0.3750000000    0.0019531250
   0.3750000000    0.8750000000    0.5000000000    0.0019531250
   0.3750000000    0.8750000000    0.6250000000    0.0019531250
   0.3750000000    0.8750000000    0.7500000000    0.0019531250
   0.3750000000    0.8750000000    0.8750000000    0.0019531250
   0.5000000000    0.0000000000    0.0000000000    0.0019531250
   0.5000000000    0.0000000000    0.1250000000    0.0019531250
   0.5000000000    0.0000000000    0.2500000000    0.0019531250
   0.5000000000    0.0000000000    0.3750000000    0.0019531250
   0.5000000000    0.0000000000    0.5000000000    0.0019531250
   0.5000000000    0.0000000000    0.6250000000    0.0019531250
   0.5000000000    0.0000000000    0.7500000000    0.0019531250
   0.5000000000    0.0000000000    0.8750000000    0.0019531250
   0.5000000000    0.1250000000    0.0000000000    0.0019531250
   0.5000000000    0.1250000000    0.1250000000    0.0019531250
   0.5000000000    0.1250000000    0.2500000000    0.0019531250
   0.5000000000    0.1250000000    0.3750000000    0.0019531250
   0.5000000000    0.1250000000    0.5000000000    0.0019531250
   0.5000000000    0.1250000000    0.6250000000    0.0019531250
   0.5000000000    0.1250000000    0.7500000000    0.0019531250
   0.5000000000    0.1250000000    0.8750000000    0.0019531250
   0.5000000000    0.2500000000    0.0000000000    0.0019531250
   0.5000000000    0.2500000000    0.1250000000    0.0019531250
   0.5000000000    0.2500000000    0.2500000000    0.0019531250
   0.5000000000    0.2500000000    0.3750000000    0.0019531250
   0.5000000000    0.2500000000    0.5000000000    0.0019531250
   0.5000000000    0.2500000000    0.6250000000    0.0019531250
   0.5000000000    0.2500000000    0.7500000000    0.0019531250
   0.5000000000    0.2500000000    0.8750000000    0.0019531250
   0.5000000000    0.3750000000    0.0000000000    0.0019531250
   0.5000000000    0.3750000000    0.1250000000    0.0019531250
   0.5000000000    0.3750000000    0.2500000000    0.0019531250
   0.5000000000    0.3750000000    0.3750000000    0.0019531250
   0.5000000000    0.3750000000    0.5000000000    0.0019531250
   0.5000000000    0.3750000000    0.6250000000    0.0019531250
   0.5000000000    0.3750000000    0.7500000000    0.0019531250
   0.5000000000    0.3750000000    0.8750000000    0.0019531250
   0.5000000000    0.5000000000    0.0000000000    0.0019531250
   0.5000000000    0.5000000000    0.1250000000    0.0019531250
   0.5000000000    0.5000000000    0.2500000000    0.0019531250
   0.5000000000    0.5000000000    0.3750000000    0.0019531250
   0.5000000000    0.5000000000    0.5000000000    0.0019531250
   0.5000000000    0.5000000000    0.6250000000    0.0019531250
   0.5000000000    0.5000000000    0.7500000000    0.0019531250
   0.5000000000    0.5000000000    0.8750000000    0.0019531250
   0.5000000000    0.6250000000    0.0000000000    0.0019531250
   0.5000000000    0.6250000000    0.1250000000    0.0019531250
   0.5000000000    0.6250000000    0.2500000000    0.0019531250
   0.5000000000    0.6250000000    0.3750000000    0.0019531250
   0.5000000000    0.6250000000    0.5000000000    0.0019531250
   0.5000000000    0.6250000000    0.6250000000    0.0019531250
   0.5000000000    0.6250000000    0.7500000000    0.0019531250
   0.5000000000    0.6250000000    0.8750000000    0.0019531250
   0.5000000000    0.7500000000    0.0000000000    0.0019531250
   0.5000000000    0.7500000000    0.1250000000    0.0019531250
   0.5000000000    0.7500000000    0.2500000000    0.0019531250
   0.5000000000    0.7500000000    0.3750000000    0.0019531250
   0.5000000000    0.7500000000    0.5000000000    0.0019531250
   0.5000000000    0.7500000000    0.6250000000    0.0019531250
   0.5000000000    0.7500000000    0.7500000000    0.0019531250
   0.5000000000    0.7500000000    0.8750000000    0.0019531250
   0.5000000000    0.8750000000    0.0000000000    0.0019531250
   0.5000000000    0.8750000000    0.1250000000    0.0019531250
   0.5000000000    0.8750000000    0.2500000000    0.0019531250
   0.5000000000    0.8750000000    0.3750000000    0.0019531250
   0.5000000000    0.8750000000    0.5000000000    0.0019531250
   0.5000000000    0.8750000000    0.6250000000    0.0019531250
   0.5000000000    0.8750000000    0.7500000000    0.0019531250
   0.5000000000    0.8750000000    0.8750000000    0.0019531250
   0.6250000000    0.0000000000    0.0000000000    0.0019531250
   0.6250000000    0.0000000000    0.1250000000    0.0019531250
   0.6250000000    0.0000000000    0.2500000000    0.0019531250
   0.6250000000    0.0000000000    0.3750000000    0.0019531250
   0.6250000000    0.0000000000    0.5000000000    0.0019531250
   0.6250000000    0.0000000000    0.6250000000    0.0019531250
   0.6250000000    0.0000000000    0.7500000000    0.0019531250
   0.6250000000    0.0000000000    0.8750000000    0.0019531250
   0.6250000000    0.1250000000    0.0000000000    0.0019531250
   0.6250000000    0.1250000000    0.1250000000    0.0019531250
   0.6250000000    0.1250000000    0.2500000000    0.0019531250
   0.6250000000    0.1250000000    0.3750000000    0.0019531250
   0.6250000000    0.1250000000    0.5000000000    0.0019531250
   0.6250000000    0.1250000000    0.6250000000    0.0019531250
   0.6250000000    0.1250000000    0.7500000000    0.0019531250
   0.6250000000    0.1250000000    0.8750000000    0.0019531250
   0.6250000000    0.2500000000    0.0000000000    0.0019531250
   0.6250000000    0.2500000000    0.1250000000    0.0019531250
   0.6250000000    0.2500000000    0.2500000000    0.0019531250
   0.6250000000    0.2500000000    0.3750000000    0.0019531250
   0.6250000000    0.2500000000    0.5000000000    0.0019531250
   0.6250000000    0.2500000000    0.6250000000    0.0019531250
   0.6250000000    0.2500000000    0.7500000000    0.0019531250
   0.6250000000    0.2500000000    0.8750000000    0.0019531250
   0.6250000000    0.3750000000    0.0000000000    0.0019531250
   0.6250000000    0.3750000000    0.1250000000    0.0019531250
   0.6250000000    0.3750000000    0.2500000000    0.0019531250
   0.6250000000    0.3750000000    0.3750000000    0.0019531250
   0.6250000000    0.3750000000    0.5000000000    0.0019531250
   0.6250000000    0.3750000000    0.6250000000    0.0019531250
   0.6250000000    0.3750000000    0.7500000000    0.0019531250
   0.6250000000    0.3750000000    0.8750000000    0.0019531250
   0.6250000000    0.5000000000    0.0000000000    0.0019531250
   0.6250000000    0.5000000000    0.1250000000    0.0019531250
   0.6250000000    0.5000000000    0.2500000000    0.0019531250
   0.6250000000    0.5000000000    0.3750000000    0.0019531250
   0.6250000000    0.5000000000    0.5000000000    0.0019531250
   0.6250000000    0.5000000000    0.6250000000    0.0019531250
   0.6250000000    0.5000000000    0.7500000000    0.0019531250
   0.6250000000    0.5000000000    0.8750000000    0.0019531250
   0.6250000000    0.6250000000    0.0000000000    0.0019531250
   0.6250000000    0.6250000000    0.1250000000    0.0019531250
   0.6250000000    0.6250000000    0.2500000000    0.0019531250
   0.6250000000    0.6250000000    0.3750000000    0.0019531250
   0.6250000000    0.6250000000    0.5000000000    0.0019531250
   0.6250000000    0.6250000000    0.6250000000    0.0019531250
   0.6250000000    0.6250000000    0.7500000000    0.0019531250
   0.6250000000    0.6250000000    0.8750000000    0.0019531250
   0.6250000000    0.7500000000    0.0000000000    0.0019531250
   0.6250000000    0.7500000000    0.1250000000    0.0019531250
   0.6250000000    0.7500000000    0.2500000000    0.0019531250
   0.6250000000    0.7500000000    0.3750000000    0.0019531250
   0.6250000000    0.7500000000    0.5000000000    0.0019531250
   0.6250000000    0.7500000000    0.6250000000    0.0019531250
   0.6250000000    0.7500000000    0.7500000000    0.0019531250
   0.6250000000    0.7500000000    0.8750000000    0.0019531250
   0.6250000000    0.8750000000    0.0000000000    0.0019531250
   0.6250000000    0.8750000000    0.1250000000    0.0019531250
   0.6250000000    0.8750000000    0.2500000000    0.0019531250
   0.6250000000    0.8750000000    0.3750000000    0.0019531250
   0.6250000000    0.8750000000    0.5000000000    0.0019531250
   0.6250000000    0.8750000000    0.6250000000    0.0019531250
   0.6250000000    0.8750000000    0.7500000000    0.0019531250
   0.6250000000    0.8750000000    0.8750000000    0.0019531250
   0.7500000000    0.0000000000    0.0000000000    0.0019531250
   0.7500000000    0.0000000000    0.1250000000    0.0019531250
   0.7500000000    0.0000000000    0.2500000000    0.0019531250
   0.7500000000    0.0000000000    0.3750000000    0.0019531250
   0.7500000000    0.0000000000    0.5000000000    0.0019531250
   0.7500000000    0.0000000000    0.6250000000    0.0019531250
   0.7500000000    0.0000000000    0.7500000000    0.0019531250
   0.7500000000    0.0000000000    0.8750000000    0.0019531250
   0.7500000000    0.1250000000    0.0000000000    0.0019531250
   0.7500000000    0.1250000000    0.1250000000    0.0019531250
   0.7500000000    0.1250000000    0.2500000000    0.0019531250
   0.7500000000    0.1250000000    0.3750000000    0.0019531250
   0.7500000000    0.1250000000    0.5000000000    0.0019531250
   0.7500000000    0.1250000000    0.6250000000    0.0019531250
   0.7500000000    0.1250000000    0.7500000000    0.0019531250
   0.7500000000    0.1250000000    0.8750000000    0.0019531250
   0.7500000000    0.2500000000    0.0000000000    0.0019531250
   0.7500000000    0.2500000000    0.1250000000    0.0019531250
   0.7500000000    0.2500000000    0.2500000000    0.0019531250
   0.7500000000    0.2500000000    0.3750000000    0.0019531250
   0.7500000000    0.2500000000    0.5000000000    0.0019531250
   0.7500000000    0.2500000000    0.6250000000    0.0019531250
   0.7500000000    0.2500000000    0.7500000000    0.0019531250
   0.7500000000    0.2500000000    0.8750000000    0.0019531250
   0.7500000000    0.3750000000    0.0000000000    0.0019531250
   0.7500000000    0.3750000000    0.1250000000    0.0019531250
   0.7500000000    0.3750000000    0.2500000000    0.0019531250
   0.7500000000    0.3750000000    0.3750000000    0.0019531250
   0.7500000000    0.3750000000    0.5000000000    0.0019531250
   0.7500000000    0.3750000000    0.6250000000    0.0019531250
   0.7500000000    0.3750000000    0.7500000000    0.0019531250
   0.7500000000    0.3750000000    0.8750000000    0.0019531250
   0.7500000000    0.5000000000    0.0000000000    0.0019531250
   0.7500000000    0.5000000000    0.1250000000    0.0019531250
   0.7500000000    0.5000000000    0.2500000000    0.0019531250
   0.7500000000    0.5000000000    0.3750000000    0.0019531250
   0.7500000000    0.5000000000    0.5000000000    0.0019531250
   0.7500000000    0.5000000000    0.6250000000    0.0019531250
   0.7500000000    0.5000000000    0.7500000000    0.0019531250
   0.7500000000    0.5000000000    0.8750000000    0.0019531250
   0.7500000000    0.6250000000    0.0000000000    0.0019531250
   0.7500000000    0.6250000000    0.1250000000    0.0019531250
   0.7500000000    0.6250000000    0.2500000000    0.0019531250
   0.7500000000    0.6250000000    0.3750000000    0.0019531250
   0.7500000000    0.6250000000    0.5000000000    0.0019531250
   0.7500000000    0.6250000000    0.6250000000    0.0019531250
   0.7500000000    0.6250000000    0.7500000000    0.0019531250
   0.7500000000    0.6250000000    0.8750000000    0.0019531250
   0.7500000000    0.7500000000    0.0000000000    0.0019531250
   0.7500000000    0.7500000000    0.1250000000    0.0019531250
   0.7500000000    0.7500000000    0.2500000000    0.0019531250
   0.7500000000    0.7500000000    0.3750000000    0.0019531250
   0.7500000000    0.7500000000    0.5000000000    0.0019531250
   0.7500000000    0.7500000000    0.6250000000    0.0019531250
   0.7500000000    0.7500000000    0.7500000000    0.0019531250
   0.7500000000    0.7500000000    0.8750000000    0.0019531250
   0.7500000000    0.8750000000    0.0000000000    0.0019531250
   0.7500000000    0.8750000000    0.1250000000    0.0019531250
   0.7500000000    0.8750000000    0.2500000000    0.0019531250
   0.7500000000    0.8750000000    0.3750000000    0.0019531250
   0.7500000000    0.8750000000    0.5000000000    0.0019531250
   0.7500000000    0.8750000000    0.6250000000    0.0019531250
   0.7500000000    0.8750000000    0.7500000000    0.0019531250
   0.7500000000    0.8750000000    0.8750000000    0.0019531250
   0.8750000000    0.0000000000    0.0000000000    0.0019531250
   0.8750000000    0.0000000000    0.1250000000    0.0019531250
   0.8750000000    0.0000000000    0.2500000000    0.0019531250
   0.8750000000    0.0000000000    0.3750000000    0.0019531250