! generated by cif2qewan.py
num_bands = 54
num_wann  = 18
exclude_bands = 1-2

dis_num_iter = 200
num_iter = 0

dis_froz_max = -200
dis_froz_min = -200

spinors = .true.

begin projections
Fe:s,p,d
end projections

bands_plot = .true.
write_hr = .true.
write_tb = .true.
fermi_surface_plot = .true.
wannier_plot = .true.

begin unit_cell_cart
ang
  -1.4315200    1.4315200    1.4315200
   1.4315200   -1.4315200    1.4315200
   1.4315200    1.4315200   -1.4315200
end unit_cell_cart

begin atoms_frac
Fe   0.000000000000000   0.000000000000000   0.000000000000000 
end atoms_frac

mp_grid: 8 8 8

begin kpoints
   0.0000000000    0.0000000000    0.0000000000
   0.0000000000    0.0000000000    0.1250000000
   0.0000000000    0.0000000000    0.2500000000
   0.0000000000    0.0000000000    0.3750000000
   0.0000000000    0.0000000000    0.5000000000
   0.0000000000    0.0000000000    0.6250000000
   0.0000000000    0.0000000000    0.7500000000
   0.0000000000    0.0000000000    0.8750000000
   0.0000000000    0.1250000000    0.0000000000
   0.0000000000    0.1250000000    0.1250000000
   0.0000000000    0.1250000000    0.2500000000
   0.0000000000    0.1250000000    0.3750000000
   0.0000000000    0.1250000000    0.5000000000
   0.0000000000    0.1250000000    0.6250000000
   0.0000000000    0.1250000000    0.7500000000
   0.0000000000    0.1250000000    0.8750000000
   0.0000000000    0.2500000000    0.0000000000
   0.0000000000    0.2500000000    0.1250000000
   0.0000000000    0.2500000000    0.2500000000
   0.0000000000    0.2500000000    0.3750000000
   0.0000000000    0.2500000000    0.5000000000
   0.0000000000    0.2500000000    0.6250000000
   0.0000000000    0.2500000000    0.7500000000
   0.0000000000    0.2500000000    0.8750000000
   0.0000000000    0.3750000000    0.0000000000
   0.0000000000    0.3750000000    0.1250000000
   0.0000000000    0.3750000000    0.2500000000
   0.0000000000    0.3750000000    0.3750000000
   0.0000000000    0.3750000000    0.5000000000
   0.0000000000    0.3750000000    0.6250000000
   0.0000000000    0.3750000000    0.7500000000
   0.0000000000    0.3750000000    0.8750000000
   0.0000000000    0.5000000000    0.0000000000
   0.0000000000    0.5000000000    0.1250000000
   0.0000000000    0.5000000000    0.2500000000
   0.0000000000    0.5000000000    0.3750000000
   0.0000000000    0.5000000000    0.5000000000
   0.0000000000    0.5000000000    0.6250000000
   0.0000000000    0.5000000000    0.7500000000
   0.0000000000    0.5000000000    0.8750000000
   0.0000000000    0.6250000000    0.0000000000
   0.0000000000    0.6250000000    0.1250000000
   0.0000000000    0.6250000000    0.2500000000
   0.0000000000    0.6250000000    0.3750000000
   0.0000000000    0.6250000000    0.5000000000
   0.0000000000    0.6250000000    0.6250000000
   0.0000000000    0.6250000000    0.7500000000
   0.0000000000    0.6250000000    0.8750000000
   0.0000000000    0.7500000000    0.0000000000
   0.0000000000    0.7500000000    0.1250000000
   0.0000000000    0.7500000000    0.2500000000
   0.0000000000    0.7500000000    0.3750000000
   0.0000000000    0.7500000000    0.5000000000
   0.0000000000    0.7500000000    0.6250000000
   0.0000000000    0.7500000000    0.7500000000
   0.0000000000    0.7500000000    0.8750000000
   0.0000000000    0.8750000000    0.0000000000
   0.0000000000    0.8750000000    0.1250000000
   0.0000000000    0.8750000000    0.2500000000
   0.0000000000    0.8750000000    0.3750000000
   0.0000000000    0.8750000000    0.5000000000
   0.0000000000    0.8750000000    0.6250000000
   0.0000000000    0.8750000000    0.7500000000
   0.0000000000    0.8750000000    0.8750000000
   0.1250000000    0.0000000000    0.0000000000
   0.1250000000    0.0000000000    0.1250000000
   0.1250000000    0.0000000000    0.2500000000
   0.1250000000    0.0000000000    0.3750000000
   0.1250000000    0.0000000000    0.5000000000
   0.1250000000    0.0000000000    0.6250000000
   0.1250000000    0.0000000000    0.7500000000
   0.1250000000    0.0000000000    0.8750000000
   0.1250000000    0.1250000000    0.0000000000
   0.1250000000    0.1250000000    0.1250000000
   0.1250000000    0.1250000000    0.2500000000
   0.1250000000    0.1250000000    0.3750000000
   0.1250000000    0.1250000000    0.5000000000
   0.1250000000    0.1250000000    0.6250000000
   0.1250000000    0.1250000000    0.7500000000
   0.1250000000    0.1250000000    0.8750000000
   0.1250000000    0.2500000000    0.0000000000
   0.1250000000    0.2500000000    0.1250000000
   0.1250000000    0.2500000000    0.2500000000
   0.1250000000    0.2500000000    0.3750000000
   0.1250000000    0.2500000000    0.5000000000
   0.1250000000    0.2500000000    0.6250000000
   0.1250000000    0.2500000000    0.7500000000
   0.1250000000    0.2500000000    0.8750000000
   0.1250000000    0.3750000000    0.0000000000
   0.1250000000    0.3750000000    0.1250000000
   0.1250000000    0.3750000000    0.2500000000
   0.1250000000    0.3750000000    0.3750000000
   0.1250000000    0.3750000000    0.5000000000
   0.1250000000    0.3750000000    0.6250000000
   0.1250000000    0.3750000000    0.7500000000
   0.1250000000    0.3750000000    0.8750000000
   0.1250000000    0.5000000000    0.0000000000
   0.1250000000    0.5000000000    0.1250000000
   0.1250000000    0.5000000000    0.2500000000
   0.1250000000    0.5000000000    0.3750000000
   0.1250000000    0.5000000000    0.5000000000
   0.1250000000    0.5000000000    0.6250000000
   0.1250000000    0.5000000000    0.7500000000
   0.1250000000    0.5000000000    0.8750000000
   0.1250000000    0.6250000000    0.0000000000
   0.1250000000    0.6250000000    0.1250000000
   0.1250000000    0.6250000000    0.2500000000
   0.1250000000    0.6250000000    0.3750000000
   0.1250000000    0.6250000000    0.5000000000
   0.1250000000    0.6250000000    0.6250000000
   0.1250000000    0.6250000000    0.7500000000
   0.1250000000    0.6250000000    0.8750000000
   0.1250000000    0.7500000000    0.0000000000
   0.1250000000    0.7500000000    0.1250000000
   0.1250000000    0.7500000000    0.2500000000
   0.1250000000    0.7500000000    0.3750000000
   0.1250000000    0.7500000000    0.5000000000
   0.1250000000    0.7500000000    0.6250000000
   0.1250000000    0.7500000000    0.7500000000
   0.1250000000    0.7500000000    0.8750000000
   0.1250000000    0.8750000000    0.0000000000
   0.1250000000    0.8750000000    0.1250000000
   0.1250000000    0.8750000000    0.2500000000
   0.1250000000    0.8750000000    0.3750000000
   0.1250000000    0.8750000000    0.5000000000
   0.1250000000    0.8750000000    0.6250000000
   0.1250000000    0.8750000000    0.7500000000
   0.1250000000    0.8750000000    0.8750000000
   0.2500000000    0.0000000000    0.0000000000
   0.2500000000    0.0000000000    0.1250000000
   0.2500000000    0.0000000000    0.2500000000
   0.2500000000    0.0000000000    0.3750000000
   0.2500000000    0.0000000000    0.5000000000
   0.2500000000    0.0000000000    0.6250000000
   0.2500000000    0.0000000000    0.7500000000
   0.2500000000    0.0000000000    0.8750000000
   0.2500000000    0.1250000000    0.0000000000
   0.2500000000    0.1250000000    0.1250000000
   0.2500000000    0.1250000000    0.2500000000
   0.2500000000    0.1250000000    0.3750000000
   0.2500000000    0.1250000000    0.5000000000
   0.2500000000    0.1250000000    0.6250000000
   0.2500000000    0.1250000000    0.7500000000
   0.2500000000    0.1250000000    0.8750000000
   0.2500000000    0.2500000000    0.0000000000
   0.2500000000    0.2500000000    0.1250000000
   0.2500000000    0.2500000000    0.2500000000
   0.2500000000    0.2500000000    0.3750000000
   0.2500000000    0.2500000000    0.5000000000
   0.2500000000    0.2500000000    0.6250000000
   0.2500000000    0.2500000000    0.7500000000
   0.2500000000    0.2500000000    0.8750000000
   0.2500000000    0.3750000000    0.0000000000
   0.2500000000    0.3750000000    0.1250000000
   0.2500000000    0.3750000000    0.2500000000
   0.2500000000    0.3750000000    0.3750000000
   0.2500000000    0.3750000000    0.5000000000
   0.2500000000    0.3750000000    0.6250000000
   0.2500000000    0.3750000000    0.7500000000
   0.2500000000    0.3750000000    0.8750000000
   0.2500000000    0.5000000000    0.0000000000
   0.2500000000    0.5000000000    0.1250000000
   0.2500000000    0.5000000000    0.2500000000
   0.2500000000    0.5000000000    0.3750000000
   0.2500000000    0.5000000000    0.5000000000
   0.2500000000    0.5000000000    0.6250000000
   0.2500000000    0.5000000000    0.7500000000
   0.2500000000    0.5000000000    0.8750000000
   0.2500000000    0.6250000000    0.0000000000
   0.2500000000    0.6250000000    0.1250000000
   0.2500000000    0.6250000000    0.2500000000
   0.2500000000    0.6250000000    0.3750000000
   0.2500000000    0.6250000000    0.5000000000
   0.2500000000    0.6250000000    0.6250000000
   0.2500000000    0.6250000000    0.7500000000
   0.2500000000    0.6250000000    0.8750000000
   0.2500000000    0.7500000000    0.0000000000
   0.2500000000    0.7500000000    0.1250000000
   0.2500000000    0.7500000000    0.2500000000
   0.2500000000    0.7500000000    0.3750000000
   0.2500000000    0.7500000000    0.5000000000
   0.2500000000    0.7500000000    0.6250000000
   0.2500000000    0.7500000000    0.7500000000
   0.2500000000    0.7500000000    0.8750000000
   0.2500000000    0.8750000000    0.0000000000
   0.2500000000    0.8750000000    0.1250000000
   0.2500000000    0.8750000000    0.2500000000
   0.2500000000    0.8750000000    0.3750000000
   0.2500000000    0.8750000000    0.5000000000
   0.2500000000    0.8750000000    0.6250000000
   0.2500000000    0.8750000000    0.7500000000
   0.2500000000    0.8750000000    0.8750000000
   0.3750000000    0.0000000000    0.0000000000
   0.3750000000    0.0000000000    0.1250000000
   0.3750000000    0.0000000000    0.2500000000
   0.3750000000    0.0000000000    0.3750000000
   0.3750000000    0.0000000000    0.5000000000
   0.3750000000    0.0000000000    0.6250000000
   0.3750000000    0.0000000000    0.7500000000
   0.3750000000    0.0000000000    0.8750000000
   0.3750000000    0.1250000000    0.0000000000
   0.3750000000    0.1250000000    0.1250000000
   0.3750000000    0.1250000000    0.2500000000
   0.3750000000    0.1250000000    0.3750000000
   0.3750000000    0.1250000000    0.5000000000
   0.3750000000    0.1250000000    0.6250000000
   0.3750000000    0.1250000000    0.7500000000
   0.3750000000    0.1250000000    0.8750000000
   0.3750000000    0.2500000000    0.0000000000
   0.3750000000    0.2500000000    0.1250000000
   0.3750000000    0.2500000000    0.2500000000
   0.3750000000    0.2500000000    0.3750000000
   0.3750000000    0.2500000000    0.5000000000
   0.3750000000    0.2500000000    0.6250000000
   0.3750000000    0.2500000000    0.7500000000
   0.3750000000    0.2500000000    0.8750000000
   0.3750000000    0.3750000000    0.0000000000
   0.3750000000    0.3750000000    0.1250000000
   0.3750000000    0.3750000000    0.2500000000
   0.3750000000    0.3750000000    0.3750000000
   0.3750000000    0.3750000000    0.5000000000
   0.3750000000    0.3750000000    0.6250000000
   0.3750000000    0.3750000000    0.7500000000
   0.3750000000    0.3750000000    0.8750000000
   0.3750000000    0.5000000000    0.0000000000
   0.3750000000    0.5000000000    0.1250000000
   0.3750000000    0.5000000000    0.2500000000
   0.3750000000    0.5000000000    0.3750000000
   0.3750000000    0.5000000000    0.5000000000
   0.3750000000    0.5000000000    0.6250000000
   0.3750000000    0.5000000000    0.7500000000
   0.3750000000    0.5000000000    0.8750000000
   0.3750000000    0.6250000000    0.0000000000
   0.3750000000    0.6250000000    0.1250000000
   0.3750000000    0.6250000000    0.2500000000
   0.3750000000    0.6250000000    0.3750000000
   0.3750000000    0.6250000000    0.5000000000
   0.3750000000    0.6250000000    0.6250000000
   0.3750000000    0.6250000000    0.7500000000
   0.3750000000    0.6250000000    0.8750000000
   0.3750000000    0.7500000000    0.0000000000
   0.3750000000    0.7500000000    0.1250000000
   0.3750000000    0.7500000000    0.2500000000
   0.3750000000    0.7500000000    0.3750000000
   0.3750000000    0.7500000000    0.5000000000
   0.3750000000    0.7500000000    0.6250000000
   0.3750000000    0.7500000000    0.7500000000
   0.3750000000    0.7500000000    0.8750000000
   0.3750000000    0.8750000000    0.0000000000
   0.3750000000    0.8750000000    0.1250000000
   0.3750000000    0.8750000000    0.2500000000
   0.3750000000    0.8750000000    0.3750000000
   0.3750000000    0.8750000000    0.5000000000
   0.3750000000    0.8750000000    0.6250000000
   0.3750000000    0.8750000000    0.7500000000
   0.3750000000    0.8750000000    0.8750000000
   0.5000000000    0.0000000000    0.0000000000
   0.5000000000    0.0000000000    0.1250000000
   0.5000000000    0.0000000000    0.2500000000
   0.5000000000    0.0000000000    0.3750000000
   0.5000000000    0.0000000000    0.5000000000
   0.5000000000    0.0000000000    0.6250000000
   0.5000000000    0.0000000000    0.7500000000
   0.5000000000    0.0000000000    0.8750000000
   0.5000000000    0.1250000000    0.0000000000
   0.5000000000    0.1250000000    0.1250000000
   0.5000000000    0.1250000000    0.2500000000
   0.5000000000    0.1250000000    0.3750000000
   0.5000000000    0.1250000000    0.5000000000
   0.5000000000    0.1250000000    0.6250000000
   0.5000000000    0.1250000000    0.7500000000
   0.5000000000    0.1250000000    0.8750000000
   0.5000000000    0.2500000000    0.0000000000
   0.5000000000    0.2500000000    0.1250000000
   0.5000000000    0.2500000000    0.2500000000
   0.5000000000    0.2500000000    0.3750000000
   0.5000000000    0.2500000000    0.5000000000
   0.5000000000    0.2500000000    0.6250000000
   0.5000000000    0.2500000000    0.7500000000
   0.5000000000    0.2500000000    0.8750000000
   0.5000000000    0.3750000000    0.0000000000
   0.5000000000    0.3750000000    0.1250000000
   0.5000000000    0.3750000000    0.2500000000
   0.5000000000    0.3750000000    0.3750000000
   0.5000000000    0.3750000000    0.5000000000
   0.5000000000    0.3750000000    0.6250000000
   0.5000000000    0.3750000000    0.7500000000
   0.5000000000    0.3750000000    0.8750000000
   0.5000000000    0.5000000000    0.0000000000
   0.5000000000    0.5000000000    0.1250000000
   0.5000000000    0.5000000000    0.2500000000
   0.5000000000    0.5000000000    0.3750000000
   0.5000000000    0.5000000000    0.5000000000
   0.5000000000    0.5000000000    0.6250000000
   0.5000000000    0.5000000000    0.7500000000
   0.5000000000    0.5000000000    0.8750000000
   0.5000000000    0.6250000000    0.0000000000
   0.5000000000    0.6250000000    0.1250000000
   0.5000000000    0.6250000000    0.2500000000
   0.5000000000    0.6250000000    0.3750000000
   0.5000000000    0.6250000000    0.5000000000
   0.5000000000    0.6250000000    0.6250000000
   0.5000000000    0.6250000000    0.7500000000
   0.5000000000    0.6250000000    0.8750000000
   0.5000000000    0.7500000000    0.0000000000
   0.5000000000    0.7500000000    0.1250000000
   0.5000000000    0.7500000000    0.2500000000
   0.5000000000    0.7500000000    0.3750000000
   0.5000000000    0.7500000000    0.5000000000
   0.5000000000    0.7500000000    0.6250000000
   0.5000000000    0.7500000000    0.7500000000
   0.5000000000    0.7500000000    0.8750000000
   0.5000000000    0.8750000000    0.0000000000
   0.5000000000    0.8750000000    0.1250000000
   0.5000000000    0.8750000000    0.2500000000
   0.5000000000    0.8750000000    0.3750000000
   0.5000000000    0.8750000000    0.5000000000
   0.5000000000    0.8750000000    0.6250000000
   0.5000000000    0.8750000000    0.7500000000
   0.5000000000    0.8750000000    0.8750000000
   0.6250000000    0.0000000000    0.0000000000
   0.6250000000    0.0000000000    0.1250000000
   0.6250000000    0.0000000000    0.2500000000
   0.6250000000    0.0000000000    0.3750000000
   0.6250000000    0.0000000000    0.5000000000
   0.6250000000    0.0000000000    0.6250000000
   0.6250000000    0.0000000000    0.7500000000
   0.6250000000    0.0000000000    0.8750000000
   0.6250000000    0.1250000000    0.0000000000
   0.6250000000    0.1250000000    0.1250000000
   0.6250000000    0.1250000000    0.2500000000
   0.6250000000    0.1250000000    0.3750000000
   0.6250000000    0.1250000000    0.5000000000
   0.6250000000    0.1250000000    0.6250000000
   0.6250000000    0.1250000000    0.7500000000
   0.6250000000    0.1250000000    0.8750000000
   0.6250000000    0.2500000000    0.0000000000
   0.6250000000    0.2500000000    0.1250000000
   0.6250000000    0.2500000000    0.2500000000
   0.6250000000    0.2500000000    0.3750000000
   0.6250000000    0.2500000000    0.5000000000
   0.6250000000    0.2500000000    0.6250000000
   0.6250000000    0.2500000000    0.7500000000
   0.6250000000    0.2500000000    0.8750000000
   0.6250000000    0.3750000000    0.0000000000
   0.6250000000    0.3750000000    0.1250000000
   0.6250000000    0.3750000000    0.2500000000
   0.6250000000    0.3750000000    0.3750000000
   0.6250000000    0.3750000000    0.5000000000
   0.6250000000    0.3750000000    0.6250000000
   0.6250000000    0.3750000000    0.7500000000
   0.6250000000    0.3750000000    0.8750000000
   0.6250000000    0.5000000000    0.0000000000
   0.6250000000    0.5000000000    0.1250000000
   0.6250000000    0.5000000000    0.2500000000
   0.6250000000    0.5000000000    0.3750000000
   0.6250000000    0.5000000000    0.5000000000
   0.6250000000    0.5000000000    0.6250000000
   0.6250000000    0.5000000000    0.7500000000
   0.6250000000    0.5000000000    0.8750000000
   0.6250000000    0.6250000000    0.0000000000
   0.6250000000    0.6250000000    0.1250000000
   0.6250000000    0.6250000000    0.2500000000
   0.6250000000    0.6250000000    0.3750000000
   0.6250000000    0.6250000000    0.5000000000
   0.6250000000    0.6250000000    0.6250000000
   0.6250000000    0.6250000000    0.7500000000
   0.6250000000    0.6250000000    0.8750000000
   0.6250000000    0.7500000000    0.0000000000
   0.6250000000    0.7500000000    0.1250000000
   0.6250000000    0.7500000000    0.2500000000
   0.6250000000    0.7500000000    0.3750000000
   0.6250000000    0.7500000000    0.5000000000
   0.6250000000    0.7500000000    0.6250000000
   0.6250000000    0.7500000000    0.7500000000
   0.6250000000    0.7500000000    0.8750000000
   0.6250000000    0.8750000000    0.0000000000
   0.6250000000    0.8750000000    0.1250000000
   0.6250000000    0.8750000000    0.2500000000
   0.6250000000    0.8750000000    0.3750000000
   0.6250000000    0.8750000000    0.5000000000
   0.6250000000    0.8750000000    0.6250000000
   0.6250000000    0.8750000000    0.7500000000
   0.6250000000    0.8750000000    0.8750000000
   0.7500000000    0.0000000000    0.0000000000
   0.7500000000    0.0000000000    0.1250000000
   0.7500000000    0.0000000000    0.2500000000
   0.7500000000    0.0000000000    0.3750000000
   0.7500000000    0.0000000000    0.5000000000
   0.7500000000    0.0000000000    0.6250000000
   0.7500000000    0.0000000000    0.7500000000
   0.7500000000    0.0000000000    0.8750000000
   0.7500000000    0.1250000000    0.0000000000
   0.7500000000    0.1250000000    0.1250000000
   0.7500000000    0.1250000000    0.2500000000
   0.7500000000    0.1250000000    0.3750000000
   0.7500000000    0.1250000000    0.5000000000
   0.7500000000    0.1250000000    0.6250000000
   0.7500000000    0.1250000000    0.7500000000
   0.7500000000    0.1250000000    0.8750000000
   0.7500000000    0.2500000000    0.0000000000
   0.7500000000    0.2500000000    0.1250000000
   0.7500000000    0.2500000000    0.2500000000
   0.7500000000    0.2500000000    0.3750000000
   0.7500000000    0.2500000000    0.5000000000
   0.7500000000    0.2500000000    0.6250000000
   0.7500000000    0.2500000000    0.7500000000
   0.7500000000    0.2500000000    0.8750000000
   0.7500000000    0.3750000000    0.0000000000
   0.7500000000    0.3750000000    0.1250000000
   0.7500000000    0.3750000000    0.2500000000
   0.7500000000    0.3750000000    0.3750000000
   0.7500000000    0.3750000000    0.5000000000
   0.7500000000    0.3750000000    0.6250000000
   0.7500000000    0.3750000000    0.7500000000
   0.7500000000    0.3750000000    0.8750000000
   0.7500000000    0.5000000000    0.0000000000
   0.7500000000    0.5000000000    0.1250000000
   0.7500000000    0.5000000000    0.2500000000
   0.7500000000    0.5000000000    0.3750000000
   0.7500000000    0.5000000000    0.5000000000
   0.7500000000    0.5000000000    0.6250000000
   0.7500000000    0.5000000000    0.7500000000
   0.7500000000    0.5000000000    0.8750000000
   0.7500000000    0.6250000000    0.0000000000
   0.7500000000    0.6250000000    0.1250000000
   0.7500000000    0.6250000000    0.2500000000
   0.7500000000    0.6250000000    0.3750000000
   0.7500000000    0.6250000000    0.5000000000
   0.7500000000    0.6250000000    0.6250000000
   0.7500000000    0.6250000000    0.7500000000
   0.7500000000    0.6250000000    0.8750000000
   0.7500000000    0.7500000000    0.0000000000
   0.7500000000    0.7500000000    0.1250000000
   0.7500000000    0.7500000000    0.2500000000
   0.7500000000    0.7500000000    0.3750000000
   0.7500000000    0.7500000000    0.5000000000
   0.7500000000    0.7500000000    0.6250000000
   0.7500000000    0.7500000000    0.7500000000
   0.7500000000    0.7500000000    0.8750000000
   0.7500000000    0.8750000000    0.0000000000
   0.7500000000    0.8750000000    0.1250000000
   0.7500000000    0.8750000000    0.2500000000
   0.7500000000    0.8750000000    0.3750000000
   0.7500000000    0.8750000000    0.5000000000
   0.7500000000    0.8750000000    0.6250000000
   0.7500000000    0.8750000000    0.7500000000
   0.7500000000    0.8750000000    0.8750000000
   0.8750000000    0.0000000000    0.0000000000
   0.8750000000    0.0000000000    0.1250000000
   0.8750000000    0.0000000000    0.2500000000
   0.8750000000    0.0000000000    0.3750000000
   0.8750000000    0.0000000000    0.5000000000
   0.8750000000    0.0000000000    0.6250000000
   0.8750000000    0.0000000000    0.7500000000
   0.8750000000    0.0000000000    0.8750000000
   0.8750000000    0.1250000000    0.0000000000
   0.8750000000    0.1250000000    0.1250000000
   0.8750000000    0.1250000000    0.2500000000
   0.8750000000    0.1250000000    0.3750000000
   0.8750000000    0.1250000000    0.5000000000
   0.8750000000    0.1250000000    0.6250000000
   0.8750000000    0.1250000000    0.7500000000
   0.8750000000    0.1250000000    0.8750000000
   0.8750000000    0.2500000000    0.0000000000
   0.8750000000    0.2500000000    0.1250000000
   0.8750000000    0.2500000000    0.2500000000
   0.8750000000    0.2500000000    0.3750000000
   0.8750000000    0.2500000000    0.5000000000
   0.8750000000    0.2500000000    0.6250000000
   0.8750000000    0.2500000000    0.7500000000
   0.8750000000    0.2500000000    0.8750000000
   0.8750000000    0.3750000000    0.0000000000
   0.8750000000    0.3750000000    0.1250000000
   0.8750000000    0.3750000000    0.2500000000
   0.8750000000    0.3750000000    0.3750000000
   0.8750000000    0.3750000000    0.5000000000
   0.8750000000    0.3750000000    0.6250000000
   0.8750000000    0.3750000000    0.7500000000
   0.8750000000    0.3750000000    0.8750000000
   0.8750000000    0.5000000000    0.0000000000
   0.8750000000    0.5000000000    0.1250000000
   0.8750000000    0.5000000000    0.2500000000
   0.8750000000    0.5000000000    0.3750000000
   0.8750000000    0.5000000000    0.5000000000
   0.8750000000    0.5000000000    0.6250000000
   0.8750000000    0.5000000000    0.7500000000
   0.8750000000    0.5000000000    0.8750000000
   0.8750000000    0.6250000000    0.0000000000
   0.8750000000    0.6250000000    0.1250000000
   0.8750000000    0.6250000000    0.2500000000
   0.8750000000    0.6250000000    0.3750000000
   0.8750000000    0.6250000000    0.5000000000
   0.8750000000    0.6250000000    0.6250000000
   0.8750000000    0.6250000000    0.7500000000
   0.8750000000    0.6250000000    0.8750000000
   0.8750000000    0.7500000000    0.0000000000
   0.8750000000    0.7500000000    0.1250000000
   0.8750000000    0.7500000000    0.2500000000
   0.8750000000    0.7500000000    0.3750000000
   0.8750000000    0.7500000000    0.5000000000
   0.8750000000    0.7500000000    0.6250000000
   0.8750000000    0.7500000000    0.7500000000
   0.8750000000    0.7500000000    0.8750000000
   0.8750000000    0.8750000000    0.0000000000
   0.8750000000    0.8750000000    0.1250000000
   0.8750000000    0.8750000000    0.2500000000
   0.8750000000    0.8750000000    0.3750000000
   0.8750000000    0.8750000000    0.5000000000
   0.8750000000    0.8750000000    0.6250000000
   0.8750000000    0.8750000000    0.7500000000
   0.8750000000    0.8750000000    0.8750000000
end kpoints

begin kpoint_path
G   0.0000000000   0.0000000000   0.0000000000  H   0.5000000000  -0.5000000000   0.5000000000
H   0.5000000000  -0.5000000000   0.5000000000  N   0.0000000000   0.0000000000   0.5000000000
N   0.0000000000   0.0000000000   0.5000000000  G   0.0000000000   0.0000000000   0.0000000000
G   0.0000000000   0.0000000000   0.0000000000  P   0.2500000000   0.2500000000   0.2500000000
P   0.2500000000   0.2500000000   0.2500000000  H   0.5000000000  -0.5000000000   0.5000000000
P   0.2500000000   0.2500000000   0.2500000000  N   0.0000000000   0.0000000000   0.5000000000
end kpoint_path
