#************************************************************************************
#*                   Generated by cif2cell 2.0.0 2023-10-06 19:10                   *
#*  T. Bjorkman, Comp. Phys. Commun. 182, 1183-1186 (2011). Please cite generously. *
#*                                                                                  *
#*                              Data obtained from COD                              *
#*                                     Fe   ()                                      *
#*             Failed to get author information, No journal information             *
#************************************************************************************

&SYSTEM
  ibrav = 0
  A =    2.86304
  nat = 1
  ntyp = 1
/
CELL_PARAMETERS {alat}
 -0.500000000000000   0.500000000000000   0.500000000000000 
  0.500000000000000  -0.500000000000000   0.500000000000000 
  0.500000000000000   0.500000000000000  -0.500000000000000 
ATOMIC_SPECIES
  Fe   55.84500  Fe_PSEUDO
ATOMIC_POSITIONS {crystal}
Fe   0.000000000000000   0.000000000000000   0.000000000000000 

# k-space resolution ~0.15/A.
K_POINTS automatic
21 21 21  0 0 0
