! generated by cif2qewan.py
&projwfc
 prefix = 'pwscf'
 outdir = './work'
 kresolveddos = .false.
 degauss = 0.010
 Emax = 
 Emin = 
/
