! generated by cif2qewan.py
&inputpp
 outdir = './work'
 prefix = 'pwscf'
 seedname = 'pwscf'
 spin_component = 'none'
 write_mmn = .true.
 write_amn = .true.
 write_unk = .true.
/
