! generated by cif2qewan.py
&control
  calculation = 'scf'
  restart_mode = 'from_scratch'
  prefix = 'pwscf'
  tstress = .true.
  tprnfor = .true.
  pseudo_dir = '/home/arimoto/PseudoPotentials/PSLibrary'
  outdir = './work'
  wf_collect = .true.
  disk_io = 'low'
/
&system
  ibrav = 0
  A =    2.86304
  nat = 1
  ntyp = 1
  ecutwfc = 64.0
  ecutrho = 782.0
  occupations = 'smearing'
  smearing = 'm-p'
  degauss = 0.010
  nspin = 2
  starting_magnetization(1) = 3.0
/
&electrons
  mixing_mode = 'plain'
  mixing_beta = 0.1
  conv_thr = 1.0d-8
/
CELL_PARAMETERS {alat}
 -0.500000000000000   0.500000000000000   0.500000000000000 
  0.500000000000000  -0.500000000000000   0.500000000000000 
  0.500000000000000   0.500000000000000  -0.500000000000000 

ATOMIC_SPECIES
  Fe   55.84500  Fe.pbe-spn-rrkjus_psl.0.2.1.UPF

ATOMIC_POSITIONS {crystal}
Fe   0.000000000000000   0.000000000000000   0.000000000000000 

K_POINTS automatic
21 21 21  0 0 0

