! generated by cif2qewan.py
&bands
 prefix = 'pwscf'
 outdir = './work/'
 filband = 'bands.out'
/
