! generated by cif2qewan.py
&control
  calculation = 'bands'
  restart_mode = 'from_scratch'
  prefix = 'pwscf'
  tstress = .true.
  tprnfor = .true.
  pseudo_dir = '/home/arimoto/PseudoPotentials/PSLibrary'
  outdir = './work'
  wf_collect = .true.
  disk_io = 'low'
  verbosity = 'high'
/
&system
  nbnd = 34
  ibrav = 0
  A =    2.86304
  nat = 1
  ntyp = 1
  ecutwfc = 64.0
  ecutrho = 782.0
  occupations = 'smearing'
  smearing = 'm-p'
  degauss = 0.010
  lspinorb = .true.
  noncolin = .true.
  lforcet = .true.
  angle1 = 0
  angle2 = 0
  starting_magnetization(1) = 3.0
/
&electrons
  mixing_mode = 'plain'
  mixing_beta = 0.1
  conv_thr = 1.d-8
/
CELL_PARAMETERS {alat}
 -0.500000000000000   0.500000000000000   0.500000000000000 
  0.500000000000000  -0.500000000000000   0.500000000000000 
  0.500000000000000   0.500000000000000  -0.500000000000000 

ATOMIC_SPECIES
  Fe   55.84500  Fe.rel-pbe-spn-rrkjus_psl.0.2.1.UPF

ATOMIC_POSITIONS {crystal}
Fe   0.000000000000000   0.000000000000000   0.000000000000000 

K_POINTS {crystal_b}
8
   0.0000000000    0.0000000000    0.0000000000    20    !  G
   0.5000000000   -0.5000000000    0.5000000000    20    !  H
   0.0000000000    0.0000000000    0.5000000000    20    !  N
   0.0000000000    0.0000000000    0.0000000000    20    !  G
   0.2500000000    0.2500000000    0.2500000000    20    !  P
   0.5000000000   -0.5000000000    0.5000000000     0    !  H
   0.2500000000    0.2500000000    0.2500000000    20    !  P
   0.0000000000    0.0000000000    0.5000000000    20    !  N

